files/upTests/_mset/mset/0006.eprime.solution
language ESSENCE' 1.0
$ minion Nodes: 7
$ minion TotalTime: 0.002064
$ Savile Row TotalTime: 0.639
letting y_MSetExplicit be [4, 6, 7;int(1..3)]
letting x_MSetOccurrence be [1, 0, 1, 1, 1, 1;int(4..9)]
